data/benchmarks/bayes/75-12-8-q.cnf
p cnf 672 649
c weights 0.365113 0.634887 1 1 1 1 1 1 1 1 1 1 1 1 1 1 1 1 1 1 1 1 1 1 1 1 1 1 1 1 1 1 1 1 1 1 1 1 1 1 1 1 1 1 1 1 1 1 1 1 1 1 1 1 1 1 1 1 1 1 1 1 1 1 1 1 1 1 1 1 1 1 1 1 1 1 1 1 1 1 1 1 1 1 1 1 1 1 1 1 1 1 1 1 1 1 1 1 1 1 1 1 1 1 1 1 1 1 1 1 1 1 1 1 1 1 1 1 1 1 1 1 1 1 1 1 1 1 1 1 1 1 1 1 1 1 1 1 1 1 1 1 1 1 1 1 1 1 1 1 1 1 1 1 1 1 1 1 1 1 1 1 1 1 1 1 1 1 1 1 1 1 1 1 1 1 1 1 1 1 1 1 1 1 1 1 1 1 1 1 1 1 1 1 1 1 1 1 1 1 1 1 1 1 1 1 1 1 1 1 1 1 1 1 1 1 1 1 1 1 1 1 1 1 1 1 1 1 1 1 1 1 1 1 1 1 1 1 1 1 1 1 1 1 1 1 1 1 1 1 1 1 1 1 1 1 1 1 1 1 1 1 1 1 1 1 1 1 1 1 1 1 1 1 1 1 1 1 1 1 1 1 1 1 1 1 1 1 0.0809816 0.9190184 0.835267 0.16473300000000002 0.5 0.5 0.5 0.5 0.5 0.5 0.5 0.5 0.598686 0.40131399999999995 0.764634 0.23536599999999996 0.5 0.5 0.5 0.5 0.379201 0.620799 0.879263 0.12073699999999998 0.5 0.5 0.5 0.5 0.495758 0.5042420000000001 0.0154941 0.9845059 0.5 0.5 0.5 0.5 0.5 0.5 0.5 0.5 0.5 0.5 0.5 0.5 0.5 0.5 0.5 0.5 0.5 0.5 0.5 0.5 0.5 0.5 0.5 0.5 0.747141 0.25285899999999994 0.848533 0.15146700000000002 0.468076 0.5319240000000001 0.924165 0.07583499999999999 0.5 0.5 0.5 0.5 0.5 0.5 0.5 0.5 0.5 0.5 0.5 0.5 0.5 0.5 0.5 0.5 0.5 0.5 0.5 0.5 0.5 0.5 0.5 0.5 0.5 0.5 0.5 0.5 0.5 0.5 0.5 0.5 0.0163454 0.9836546 0.661707 0.33829299999999995 0.85265 0.14734999999999998 0.875005 0.12499499999999997 0.5 0.5 0.5 0.5 0.5 0.5 0.5 0.5 0.5 0.5 0.5 0.5 0.5 0.5 0.5 0.5 0.5 0.5 0.5 0.5 0.5 0.5 0.5 0.5 0.5 0.5 0.5 0.5 0.5 0.5 0.5 0.5 0.5 0.5 0.5 0.5 0.5 0.5 0.5 0.5 0.5 0.5 0.5 0.5 0.5 0.5 0.5 0.5 0.5 0.5 0.5 0.5 0.5 0.5 0.5 0.5 0.5 0.5 0.5 0.5 0.5 0.5 0.5 0.5 0.5 0.5 0.5 0.5 0.5 0.5 0.5 0.5 0.5 0.5 0.5 0.5 0.175134 0.824866 0.154575 0.845425 0.367546 0.6324540000000001 0.555325 0.44467500000000004 0.5 0.5 0.5 0.5 0.5 0.5 0.5 0.5 0.896455 0.103545 0.442612 0.557388 0.179955 0.820045 0.243054 0.756946 0.506311 0.49368900000000004 0.113607 0.886393 0.502543 0.49745700000000004 0.0252053 0.9747947 0.5 0.5 0.5 0.5 0.5 0.5 0.5 0.5 0.5 0.5 0.5 0.5 0.5 0.5 0.5 0.5 0.5 0.5 0.5 0.5 0.441513 0.558487 0.919956 0.080044 0.356949 0.643051 0.697002 0.302998 0.5 0.5 0.5 0.5 0.5 0.5 0.5 0.5 0.5 0.5 0.5 0.5 0.5 0.5 0.5 0.5 0.5 0.5 0.5 0.5 0.5 0.5 0.5 0.5 0.5 0.5 0.5 0.5 0.5 0.5 0.5 0.5 0.5 0.5 0.5 0.5 0.5 0.5 0.5 0.5 0.22841 0.77159 0.646182 0.35381799999999997 0.215932 0.784068 0.925412 0.07458799999999999 0.5 0.5 0.5 0.5 0.5 0.5 0.5 0.5 0.5 0.5 0.5 0.5 0.5 0.5 0.5 0.5 0.5 0.5 0.5 0.5 0.5 0.5 0.5 0.5 0.5 0.5 0.5 0.5 0.5 0.5 0.5 0.5 0.5 0.5 0.5 0.5 0.5 0.5 0.5 0.5 0.5 0.5 0.5 0.5 0.103551 0.896449 0.765594 0.234406 0.844888 0.15511200000000003 0.759691 0.240309 0.616948 0.38305199999999995 0.254595 0.745405 0.557172 0.442828 0.132113 0.867887 0.5 0.5 0.5 0.5 0.5 0.5 0.5 0.5 0.5 0.5 0.5 0.5 0.5 0.5 0.5 0.5 0.5 0.5 0.5 0.5 0.5 0.5 0.5 0.5 0.5 0.5 0.5 0.5 0.5 0.5 0.5 0.5 0.5 0.5 0.5 0.5 0.5 0.5 0.5 0.5 0.748973 0.251027 0.255057 0.744943 0.0804109 0.9195891 0.306145 0.693855 0.5 0.5 0.5 0.5 0.5 0.5 0.5 0.5 0.5 0.5 0.5 0.5 0.5 0.5 0.5 0.5 0.5 0.5 0.5 0.5 0.5 0.5 0.5 0.5 0.5 0.5 0.5 0.5 0.5 0.5 0.5 0.5 0.5 0.5 0.5 0.5 0.5 0.5 0.5 0.5 0.5 0.5 0.5 0.5 0.5 0.5 0.5 0.5 0.5 0.5 0.5 0.5 0.184785 0.815215 0.553141 0.446859 0.771074 0.22892599999999996 0.269295 0.7307049999999999 0.0208148 0.9791852 0.51838 0.48162000000000005 0.195679 0.8043210000000001 0.144857 0.855143 0.917834 0.08216599999999996 0.54741 0.45259000000000005 0.224089 0.775911 0.608053 0.39194700000000005 0.5 0.5 0.5 0.5 0.5 0.5 0.5 0.5 0.450642 0.549358 0.045759 0.954241 0.734132 0.265868 0.0502504 0.9497496 0.5 0.5 0.5 0.5 0.5 0.5 0.5 0.5 0.5 0.5 0.5 0.5 0.5 0.5 0.5 0.5 0.313463 0.686537 0.885054 0.11494599999999999 0.45832 0.5416799999999999 0.869256 0.13074399999999997 0.886953 0.11304700000000001 0.00573021 0.99426979 0.5 0.5 0.5 0.5 0.5 0.5 0.5 0.5 0.5 0.5 0.5 0.5 0.5 0.5 0.5 0.5 0.5 0.5 0.5 0.5 0.5 0.5 0.5 0.5 0.250866 0.749134 0.599484 0.400516 0.492113 0.507887 0.348245 0.651755 0.5 0.5 0.5 0.5 0.5 0.5 0.5 0.5 0.5 0.5 0.5 0.5 0.5 0.5 0.5 0.5 0.5 0.5 0.5 0.5 0.5 0.5 0.5 0.5 0.5 0.5 0.5 0.5 0.5 0.5 0.5 0.5 0.5 0.5 0.5 0.5 0.5 0.5 0.5 0.5 0.5 0.5 0.5 0.5 0.5 0.5 0.5 0.5 0.5 0.5 0.5 0.5 0.5 0.5 0.5 0.5 0.5 0.5 0.5 0.5 0.5 0.5 0.5 0.5 0.5 0.5 0.5 0.5 0.5 0.5 0.5 0.5 0.5 0.5 0.5 0.5 0.5 0.5 0.5 0.5 0.5 0.5 0.5 0.5 0.5 0.5 0.5 0.5 0.5 0.5 0.5 0.5 0.5 0.5 0.5 0.5 0.5 0.5 0.5 0.5 0.55751 0.44249000000000005 0.972716 0.027283999999999975 0.94802 0.051980000000000026 0.929567 0.07043299999999997 0.5 0.5 0.5 0.5 0.5 0.5 0.5 0.5 0.5 0.5 0.5 0.5 0.5 0.5 0.5 0.5 0.5 0.5 0.5 0.5 0.5 0.5 0.5 0.5 0.5 0.5 0.5 0.5 0.5 0.5 0.5 0.5 0.0624871 0.9375129 0.870824 0.12917599999999996 0.5 0.5 0.5 0.5 0.5 0.5 0.5 0.5 0.316848 0.683152 0.334988 0.6650119999999999 0.0961924 0.9038076 0.961818 0.03818200000000005 0.5 0.5 0.5 0.5 0.5 0.5 0.5 0.5 0.5 0.5 0.5 0.5 0.5 0.5 0.5 0.5 0.5 0.5 0.5 0.5 0.5 0.5 0.5 0.5 0.5 0.5 0.5 0.5 0.5 0.5 0.5 0.5 0.5 0.5 0.5 0.5 0.5 0.5 0.5 0.5 0.5 0.5 0.5 0.5 0.5 0.5 0.5 0.5 0.5 0.5 0.5 0.5 0.5 0.5 0.5 0.5 0.5 0.5 0.5 0.5 0.5 0.5 0.5 0.5 0.5 0.5 0.5 0.5 0.5 0.5 0.5 0.5 0.5 0.5 0.5 0.5 0.5 0.5 0.5 0.5 0.5 0.5 0.5 0.5 0.374266 0.625734 0.339349 0.660651 0.846058 0.15394200000000002 0.456101 0.543899 0.5 0.5 0.5 0.5 0.5 0.5 0.5 0.5 0.5 0.5 0.5 0.5 0.5 0.5 0.5 0.5 0.5 0.5 0.5 0.5 0.5 0.5 0.5 0.5 0.5 0.5 0.5 0.5 0.5 0.5 0.5 0.5 0.95267 0.04732999999999998 0.239427 0.7605729999999999 0.284153 0.715847 0.0592484 0.9407516 0.239576 0.760424 0.433514 0.566486 0.27812 0.7218800000000001 0.0856346 0.9143654 0.57432 0.42567999999999995 0.157316 0.842684 0.523744 0.476256 0.789191 0.21080900000000002 0.5 0.5 0.5 0.5 0.5 0.5 0.5 0.5 0.5 0.5 0.5 0.5 0.5 0.5 0.5 0.5 0.5 0.5 0.5 0.5 0.5 0.5 0.5 0.5 0.5 0.5 0.5 0.5 0.5 0.5 0.5 0.5 0.5 0.5 0.5 0.5 0.5 0.5 0.5 0.5 0.5 0.5 0.5 0.5 0.595418 0.404582 0.700232 0.29976800000000003 0.381776 0.618224 0.813057 0.18694299999999997 0.5 0.5 0.5 0.5 0.5 0.5 0.5 0.5 0.5 0.5 0.5 0.5 0.5 0.5 0.5 0.5 0.5 0.5 0.5 0.5 0.5 0.5 0.5 0.5 0.689926 0.31007399999999996 0.0747899 0.9252101 0.747629 0.252371 0.748527 0.25147299999999995 0.5 0.5 0.5 0.5 0.5 0.5 0.5 0.5 0.138462 0.861538 0.596781 0.403219 0.69652 0.30347999999999997 0.520238 0.479762 0.5 0.5 0.5 0.5 0.5 0.5 0.5 0.5 0.5 0.5 0.5 0.5 0.5 0.5 0.5 0.5 0.5 0.5 0.5 0.5 0.00244737 0.99755263 0.0932495 0.9067505 0.968448 0.031552000000000024 0.692373 0.307627 0.5 0.5 0.5 0.5 0.5 0.5 0.5 0.5 0.5 0.5 0.5 0.5 0.5 0.5 0.5 0.5 0.5 0.5 0.5 0.5 0.5 0.5 0.5 0.5 0.5 0.5 0.5 0.5 0.5 0.5 0.5 0.5 0.5 0.5 0.5 0.5 0.5 0.5 0.5 0.5 0.0973555 0.9026445 0.574249 0.425751 0.0694665 0.9305335 0.0658033 0.9341967 0.5 0.5 0.5 0.5 0.5 0.5 0.5 0.5 0.5 0.5 0.5 0.5 0.5 0.5 0.5 0.5 0.5 0.5 0.5 0.5 0.5 0.5 0.5 0.5
-1 -145 2 0
-1 145 -2 0
1 -146 2 0
1 146 -2 0
-2 -3 0
2 3 0
-3 4 0
3 -4 0
-4 -151 5 0
-4 151 -5 0
4 -152 5 0
4 152 -5 0
-5 6 0
5 -6 0
-6 -155 7 0
-6 155 -7 0
6 -156 7 0
6 156 -7 0
-7 -8 0
7 8 0
-8 -159 9 0
-8 159 -9 0
8 -160 9 0
8 160 -9 0
-9 10 0
9 -10 0
-10 -11 0
10 11 0
-11 -12 0
11 12 0
-1 -13 0
1 13 0
-13 -2 14 0
-13 2 14 0
13 -2 14 0
13 2 -14 0
-14 -3 -173 15 0
-14 -3 173 -15 0
-14 3 -174 15 0
-14 3 174 -15 0
14 -3 -175 15 0
14 -3 175 -15 0
14 3 -176 15 0
14 3 176 -15 0
-15 -4 -16 0
-15 4 16 0
15 -4 16 0
15 4 16 0
-16 -5 17 0
-16 5 -17 0
16 -5 -17 0
16 5 -17 0
-17 -6 -18 0
-17 6 18 0
17 -6 18 0
17 6 -18 0
-18 -7 -19 0
-18 7 19 0
18 -7 -19 0
18 7 -19 0
-19 -8 -193 20 0
-19 -8 193 -20 0
-19 8 -194 20 0
-19 8 194 -20 0
19 -8 -195 20 0
19 -8 195 -20 0
19 8 -196 20 0
19 8 196 -20 0
-20 -9 21 0
-20 9 21 0
20 -9 -21 0
20 9 21 0
-21 -10 -22 0
-21 10 -22 0
21 -10 -22 0
21 10 22 0
-22 -11 -23 0
-22 11 23 0
22 -11 23 0
22 11 23 0
-23 -12 24 0
-23 12 24 0
23 -12 24 0
23 12 -24 0
-13 25 0
13 -25 0
-25 -14 26 0
-25 14 -26 0
25 -14 26 0
25 14 26 0
-26 -15 27 0
-26 15 -27 0
26 -15 -27 0
26 15 -27 0
-27 -16 28 0
-27 16 -28 0
27 -16 -28 0
27 16 28 0
-28 -17 -29 0
-28 17 29 0
28 -17 29 0
28 17 29 0
-29 -18 -30 0
-29 18 -30 0
29 -18 30 0
29 18 30 0
-30 -19 -235 31 0
-30 -19 235 -31 0
-30 19 -236 31 0
-30 19 236 -31 0
30 -19 -237 31 0
30 -19 237 -31 0
30 19 -238 31 0
30 19 238 -31 0
-31 -20 -32 0
-31 20 -32 0
31 -20 32 0
31 20 -32 0
-32 -21 -243 33 0
-32 -21 243 -33 0
-32 21 -244 33 0
-32 21 244 -33 0
32 -21 -245 33 0
32 -21 245 -33 0
32 21 -246 33 0
32 21 246 -33 0
-33 -22 -247 34 0
-33 -22 247 -34 0
-33 22 -248 34 0
-33 22 248 -34 0
33 -22 -249 34 0
33 -22 249 -34 0
33 22 -250 34 0
33 22 250 -34 0
-34 -23 35 0
-34 23 -35 0
34 -23 -35 0
34 23 -35 0
-35 -24 -36 0
-35 24 36 0
35 -24 36 0
35 24 -36 0
-25 37 0
25 -37 0
-37 -26 -261 38 0
-37 -26 261 -38 0
-37 26 -262 38 0
-37 26 262 -38 0
37 -26 -263 38 0
37 -26 263 -38 0
37 26 -264 38 0
37 26 264 -38 0
-38 -27 -39 0
-38 27 -39 0
38 -27 39 0
38 27 -39 0
-39 -28 40 0
-39 28 40 0
39 -28 -40 0
39 28 -40 0
-40 -29 -41 0
-40 29 41 0
40 -29 -41 0
40 29 41 0
-41 -30 -42 0
-41 30 42 0
41 -30 -42 0
41 30 42 0
-42 -31 43 0
-42 31 43 0
42 -31 43 0
42 31 -43 0
-43 -32 -285 44 0
-43 -32 285 -44 0
-43 32 -286 44 0
-43 32 286 -44 0
43 -32 -287 44 0
43 -32 287 -44 0
43 32 -288 44 0
43 32 288 -44 0
-44 -33 -45 0
-44 33 45 0
44 -33 45 0
44 33 45 0
-45 -34 46 0
-45 34 -46 0
45 -34 46 0
45 34 46 0
-46 -35 -47 0
-46 35 47 0
46 -35 -47 0
46 35 -47 0
-47 -36 48 0
-47 36 -48 0
47 -36 -48 0
47 36 48 0
-37 -49 0
37 49 0
-49 -38 -50 0
-49 38 50 0
49 -38 -50 0
49 38 -50 0
-50 -39 -311 51 0
-50 -39 311 -51 0
-50 39 -312 51 0
-50 39 312 -51 0
50 -39 -313 51 0
50 -39 313 -51 0
50 39 -314 51 0
50 39 314 -51 0
-51 -40 -315 52 0
-51 -40 315 -52 0
-51 40 -316 52 0
-51 40 316 -52 0
51 -40 -317 52 0
51 -40 317 -52 0
51 40 -318 52 0
51 40 318 -52 0
-52 -41 53 0
-52 41 -53 0
52 -41 53 0
52 41 -53 0
-53 -42 -54 0
-53 42 -54 0
53 -42 -54 0
53 42 54 0
-54 -43 55 0
-54 43 55 0
54 -43 55 0
54 43 -55 0
-55 -44 56 0
-55 44 56 0
55 -44 56 0
55 44 -56 0
-56 -45 57 0
-56 45 -57 0
56 -45 57 0
56 45 -57 0
-57 -46 -339 58 0
-57 -46 339 -58 0
-57 46 -340 58 0
-57 46 340 -58 0
57 -46 -341 58 0
57 -46 341 -58 0
57 46 -342 58 0
57 46 342 -58 0
-58 -47 59 0
-58 47 -59 0
58 -47 59 0
58 47 -59 0
-59 -48 60 0
-59 48 -60 0
59 -48 -60 0
59 48 -60 0
-49 -61 0
49 61 0
-61 -50 -62 0
-61 50 62 0
61 -50 62 0
61 50 -62 0
-62 -51 -63 0
-62 51 63 0
62 -51 -63 0
62 51 63 0
-63 -52 64 0
-63 52 -64 0
63 -52 -64 0
63 52 -64 0
-64 -53 -65 0
-64 53 -65 0
64 -53 65 0
64 53 -65 0
-65 -54 -369 66 0
-65 -54 369 -66 0
-65 54 -370 66 0
-65 54 370 -66 0
65 -54 -371 66 0
65 -54 371 -66 0
65 54 -372 66 0
65 54 372 -66 0
-66 -55 -373 67 0
-66 -55 373 -67 0
-66 55 -374 67 0
-66 55 374 -67 0
66 -55 -375 67 0
66 -55 375 -67 0
66 55 -376 67 0
66 55 376 -67 0
-67 -56 -377 68 0
-67 -56 377 -68 0
-67 56 -378 68 0
-67 56 378 -68 0
67 -56 -379 68 0
67 -56 379 -68 0
67 56 -380 68 0
67 56 380 -68 0
-68 -57 -69 0
-68 57 69 0
68 -57 -69 0
68 57 -69 0
-69 -58 -385 70 0
-69 -58 385 -70 0
-69 58 -386 70 0
-69 58 386 -70 0
69 -58 -387 70 0
69 -58 387 -70 0
69 58 -388 70 0
69 58 388 -70 0
-70 -59 71 0
-70 59 -71 0
70 -59 71 0
70 59 71 0
-71 -60 -72 0
-71 60 72 0
71 -60 -72 0
71 60 -72 0
-61 -397 73 0
-61 397 -73 0
61 -398 73 0
61 398 -73 0
-73 -62 -399 74 0
-73 -62 399 -74 0
-73 62 -400 74 0
-73 62 400 -74 0
73 -62 -401 74 0
73 -62 401 -74 0
73 62 -402 74 0
73 62 402 -74 0
-74 -63 -75 0
-74 63 75 0
74 -63 75 0
74 63 -75 0
-75 -64 76 0
-75 64 -76 0
75 -64 -76 0
75 64 76 0
-76 -65 77 0
-76 65 77 0
76 -65 -77 0
76 65 -77 0
-77 -66 -415 78 0
-77 -66 415 -78 0
-77 66 -416 78 0
-77 66 416 -78 0
77 -66 -417 78 0
77 -66 417 -78 0
77 66 -418 78 0
77 66 418 -78 0
-78 -67 -79 0
-78 67 -79 0
78 -67 79 0
78 67 79 0
-79 -68 -80 0
-79 68 -80 0
79 -68 -80 0
79 68 80 0
-80 -69 81 0
-80 69 81 0
80 -69 81 0
80 69 -81 0
-81 -70 82 0
-81 70 -82 0
81 -70 -82 0
81 70 -82 0
-82 -71 -83 0
-82 71 83 0
82 -71 -83 0
82 71 -83 0
-83 -72 84 0
-83 72 84 0
83 -72 -84 0
83 72 84 0
-73 85 0
73 -85 0
-85 -74 -86 0
-85 74 -86 0
85 -74 -86 0
85 74 86 0
-86 -75 -87 0
-86 75 -87 0
86 -75 87 0
86 75 -87 0
-87 -76 -88 0
-87 76 88 0
87 -76 -88 0
87 76 -88 0
-88 -77 -89 0
-88 77 89 0
88 -77 89 0
88 77 -89 0
-89 -78 90 0
-89 78 -90 0
89 -78 90 0
89 78 -90 0
-90 -79 91 0
-90 79 91 0
90 -79 -91 0
90 79 -91 0
-91 -80 -469 92 0
-91 -80 469 -92 0
-91 80 -470 92 0
-91 80 470 -92 0
91 -80 -471 92 0
91 -80 471 -92 0
91 80 -472 92 0
91 80 472 -92 0
-92 -81 93 0
-92 81 -93 0
92 -81 93 0
92 81 93 0
-93 -82 94 0
-93 82 94 0
93 -82 94 0
93 82 -94 0
-94 -83 95 0
-94 83 -95 0
94 -83 -95 0
94 83 -95 0
-95 -84 96 0
-95 84 96 0
95 -84 96 0
95 84 -96 0
-85 -489 97 0
-85 489 -97 0
85 -490 97 0
85 490 -97 0
-97 -86 98 0
-97 86 98 0
97 -86 -98 0
97 86 98 0
-98 -87 -495 99 0
-98 -87 495 -99 0
-98 87 -496 99 0
-98 87 496 -99 0
98 -87 -497 99 0
98 -87 497 -99 0
98 87 -498 99 0
98 87 498 -99 0
-99 -88 -100 0
-99 88 100 0
99 -88 100 0
99 88 -100 0
-100 -89 -101 0
-100 89 -101 0
100 -89 101 0
100 89 -101 0
-101 -90 -102 0
-101 90 102 0
101 -90 -102 0
101 90 -102 0
-102 -91 -103 0
-102 91 103 0
102 -91 -103 0
102 91 -103 0
-103 -92 104 0
-103 92 104 0
103 -92 -104 0
103 92 -104 0
-104 -93 105 0
-104 93 -105 0
104 -93 -105 0
104 93 105 0
-105 -94 106 0
-105 94 106 0
105 -94 -106 0
105 94 106 0
-106 -95 107 0
-106 95 107 0
106 -95 -107 0
106 95 107 0
-107 -96 -108 0
-107 96 108 0
107 -96 108 0
107 96 -108 0
-97 -109 0
97 109 0
-109 -98 110 0
-109 98 -110 0
109 -98 110 0
109 98 110 0
-110 -99 -541 111 0
-110 -99 541 -111 0
-110 99 -542 111 0
-110 99 542 -111 0
110 -99 -543 111 0
110 -99 543 -111 0
110 99 -544 111 0
110 99 544 -111 0
-111 -100 112 0
-111 100 -112 0
111 -100 -112 0
111 100 112 0
-112 -101 113 0
-112 101 113 0
112 -101 -113 0
112 101 113 0
-113 -102 114 0
-113 102 114 0
113 -102 114 0
113 102 -114 0
-114 -103 115 0
-114 103 115 0
114 -103 -115 0
114 103 -115 0
-115 -104 -561 116 0
-115 -104 561 -116 0
-115 104 -562 116 0
-115 104 562 -116 0
115 -104 -563 116 0
115 -104 563 -116 0
115 104 -564 116 0
115 104 564 -116 0
-116 -105 -565 117 0
-116 -105 565 -117 0
-116 105 -566 117 0
-116 105 566 -117 0
116 -105 -567 117 0
116 -105 567 -117 0
116 105 -568 117 0
116 105 568 -117 0
-117 -106 -569 118 0
-117 -106 569 -118 0
-117 106 -570 118 0
-117 106 570 -118 0
117 -106 -571 118 0
117 -106 571 -118 0
117 106 -572 118 0
117 106 572 -118 0
-118 -107 119 0
-118 107 119 0
118 -107 -119 0
118 107 119 0
-119 -108 -120 0
-119 108 120 0
119 -108 -120 0
119 108 -120 0
-109 121 0
109 -121 0
-121 -110 -122 0
-121 110 122 0
121 -110 -122 0
121 110 -122 0
-122 -111 123 0
-122 111 -123 0
122 -111 123 0
122 111 -123 0
-123 -112 124 0
-123 112 -124 0
123 -112 -124 0
123 112 -124 0
-124 -113 -595 125 0
-124 -113 595 -125 0
-124 113 -596 125 0
-124 113 596 -125 0
124 -113 -597 125 0
124 -113 597 -125 0
124 113 -598 125 0
124 113 598 -125 0
-125 -114 -126 0
-125 114 126 0
125 -114 126 0
125 114 -126 0
-126 -115 127 0
-126 115 -127 0
126 -115 127 0
126 115 127 0
-127 -116 128 0
-127 116 -128 0
127 -116 128 0
127 116 128 0
-128 -117 -611 129 0
-128 -117 611 -129 0
-128 117 -612 129 0
-128 117 612 -129 0
128 -117 -613 129 0
128 -117 613 -129 0
128 117 -614 129 0
128 117 614 -129 0
-129 -118 -130 0
-129 118 130 0
129 -118 130 0
129 118 -130 0
-130 -119 -619 131 0
-130 -119 619 -131 0
-130 119 -620 131 0
-130 119 620 -131 0
130 -119 -621 131 0
130 -119 621 -131 0
130 119 -622 131 0
130 119 622 -131 0
-131 -120 -132 0
-131 120 132 0
131 -120 -132 0
131 120 -132 0
-121 133 0
121 -133 0
-133 -122 134 0
-133 122 134 0
133 -122 134 0
133 122 -134 0
-134 -123 -633 135 0
-134 -123 633 -135 0
-134 123 -634 135 0
-134 123 634 -135 0
134 -123 -635 135 0
134 -123 635 -135 0
134 123 -636 135 0
134 123 636 -135 0
-135 -124 136 0
-135 124 136 0
135 -124 -136 0
135 124 136 0
-136 -125 137 0
-136 125 137 0
136 -125 -137 0
136 125 137 0
-137 -126 138 0
-137 126 -138 0
137 -126 -138 0
137 126 -138 0
-138 -127 -139 0
-138 127 -139 0
138 -127 139 0
138 127 -139 0
-139 -128 140 0
-139 128 140 0
139 -128 -140 0
139 128 -140 0
-140 -129 -657 141 0
-140 -129 657 -141 0
-140 129 -658 141 0
-140 129 658 -141 0
140 -129 -659 141 0
140 -129 659 -141 0
140 129 -660 141 0
140 129 660 -141 0
-141 -130 142 0
-141 130 -142 0
141 -130 142 0
141 130 142 0
-142 -131 -143 0
-142 131 -143 0
142 -131 143 0
142 131 -143 0
-143 -132 144 0
-143 132 -144 0
143 -132 144 0
143 132 144 0
144 0
