data/benchmarks/bayes/75-12-8-q.gr
p tw 672 733
38 261
55 66
67 68
99 100
88 100
117 572
19 238
70 82
8 9
40 41
29 41
100 101
65 372
11 23
121 133
68 377
41 42
40 315
110 541
73 74
62 74
44 285
133 134
44 56
7 156
140 658
129 658
14 15
3 15
69 387
52 316
58 387
37 264
74 75
106 107
95 107
116 566
99 495
105 566
122 133
141 659
15 16
47 48
36 48
54 371
26 263
107 108
96 108
18 30
117 567
128 140
56 380
21 32
80 81
69 81
130 622
113 124
140 141
129 141
10 22
81 82
54 65
102 114
119 621
87 498
22 23
43 55
114 115
87 98
51 315
103 115
116 561
55 56
28 39
92 469
76 88
88 99
30 237
19 237
29 40
77 89
65 371
31 238
2 13
58 341
62 73
78 417
110 122
115 564
104 564
22 247
34 249
140 657
129 657
3 14
51 63
35 46
37 263
95 106
116 565
105 565
36 47
26 262
80 471
128 139
21 22
56 379
69 80
113 114
10 21
68 380
54 55
102 113
9 160
39 313
44 288
87 497
43 54
87 88
51 314
28 29
17 29
76 87
88 89
109 121
74 401
30 236
29 30
19 236
57 339
46 339
61 62
50 62
66 415
121 122
33 247
2 3
129 611
58 340
62 63
94 95
83 95
78 416
110 121
115 563
104 563
34 248
3 4
125 595
35 36
24 36
43 287
32 287
95 96
84 96
127 128
116 128
51 318
19 195
8 195
9 20
68 69
57 69
98 497
80 470
128 129
117 129
20 196
56 378
42 53
69 70
58 70
67 375
101 102
90 102
50 313
10 11
31 43
5 152
102 103
75 86
91 103
123 135
9 159
39 312
22 250
43 44
16 27
32 44
64 76
135 136
108 119
124 136
5 17
17 28
76 77
65 77
97 109
2 146
91 471
6 18
21 245
74 400
50 61
98 110
82 93
67 379
33 246
39 51
23 34
83 94
131 143
115 126
24 35
72 84
56 67
43 286
32 286
116 127
106 571
9 10
19 194
8 194
57 68
98 496
135 634
89 100
118 572
1 145
128 613
30 41
42 43
111 542
117 613
90 101
67 374
134 135
66 418
50 312
129 614
31 42
70 388
113 597
75 76
15 174
5 151
123 134
39 311
16 17
125 598
97 490
64 75
5 16
73 398
49 50
38 50
109 110
130 142
91 470
21 244
74 399
50 51
82 83
71 83
142 143
55 376
67 378
23 24
12 24
83 84
115 116
104 116
134 633
77 418
56 57
45 57
116 117
105 117
124 597
106 570
57 58
46 58
73 402
62 402
89 90
78 90
135 633
66 372
30 31
19 31
128 612
111 541
117 612
90 91
63 74
79 91
111 123
67 373
31 32
4 15
20 32
52 64
141 142
113 596
32 244
15 173
123 124
112 124
131 622
64 65
53 65
85 97
97 489
123 636
5 6
26 38
73 397
117 571
38 49
97 98
70 81
86 98
99 544
118 130
130 141
66 376
27 39
11 22
71 82
119 131
14 176
3 176
55 375
12 23
60 72
44 55
7 155
104 115
69 386
52 315
58 386
1 13
122 123
45 56
93 105
141 658
124 596
54 370
38 264
106 569
96 107
18 29
117 566
78 89
126 138
66 371
19 30
130 621
129 140
63 64
111 122
110 544
40 318
4 5
25 37
119 620
52 63
32 243
134 636
103 114
37 38
131 621
99 498
26 37
70 71
59 71
117 570
118 129
130 131
77 88
11 12
65 370
31 237
92 104
14 175
3 175
44 45
33 45
125 137
51 62
69 385
58 385
37 262
116 564
66 78
141 657
137 138
124 595
54 369
26 261
18 19
7 19
38 263
92 472
117 565
99 111
129 130
40 52
130 620
111 112
100 112
132 144
68 379
110 543
40 317
119 619
73 85
44 287
87 496
140 660
129 660
103 104
14 26
51 313
85 86
116 568
99 497
105 568
106 118
136 137
47 59
59 70
117 569
118 119
30 235
19 235
107 119
77 78
65 369
80 92
31 236
92 103
58 339
110 111
78 415
33 44
115 562
81 93
34 247
104 562
51 52
125 136
84 95
37 261
143 144
116 563
51 317
66 77
114 126
38 262
80 469
92 471
55 67
117 128
20 195
99 110
56 377
57 342
46 342
58 69
40 51
130 619
33 250
132 143
68 378
91 102
25 26
44 286
22 249
32 43
87 495
140 659
129 659
14 25
114 125
124 135
51 312
17 18
116 567
99 496
105 567
106 117
65 76
2 145
26 264
47 58
6 17
98 109
21 33
80 91
33 245
113 125
39 50
131 142
54 66
115 561
13 25
104 561
72 83
43 285
32 285
6 156
87 99
51 316
116 562
19 193
8 193
98 495
117 118
28 40
92 470
118 571
120 132
58 59
20 194
30 238
57 341
46 341
61 73
66 417
50 311
33 249
70 387
129 613
91 92
2 14
58 342
78 418
94 106
32 33
22 248
34 250
125 597
124 125
35 47
51 311
127 139
65 66
68 80
6 7
80 472
91 469
21 243
139 140
98 99
67 377
101 113
39 40
33 244
131 132
39 314
77 417
105 116
6 155
46 57
73 401
62 401
118 570
120 131
20 193
74 402
128 611
79 90
117 611
57 340
46 340
66 416
20 31
33 248
70 386
113 595
129 612
112 123
94 105
53 64
125 596
8 160
43 288
32 288
123 635
38 39
127 138
19 196
8 196
86 97
9 21
99 543
98 498
135 636
66 375
68 79
27 38
71 72
111 544
119 130
42 54
55 374
67 376
101 112
50 314
33 243
60 71
104 105
15 176
75 87
13 14
45 46
34 46
77 416
93 104
105 106
16 28
108 120
46 47
78 79
67 79
73 400
62 400
126 137
138 139
49 61
66 370
19 20
8 20
118 569
79 80
91 472
21 246
82 94
20 21
67 380
52 53
41 53
70 385
112 113
23 35
134 635
52 318
115 127
53 54
131 620
74 86
8 159
56 68
123 634
26 27
15 27
106 572
86 87
99 542
4 152
89 101
27 28
66 374
135 635
48 60
119 120
1 146
128 614
30 42
111 543
117 614
14 174
3 174
55 373
113 598
85 490
32 246
1 2
15 175
22 34
34 45
93 94
77 415
61 398
7 18
67 78
73 399
62 399
126 127
66 369
8 19
100 111
110 542
40 316
41 52
134 634
69 388
52 317
58 388
131 619
74 85
122 134
141 660
123 633
124 598
15 26
54 372
59 60
117 568
107 118
99 541
4 151
66 373
48 59
92 93
31 235
63 75
14 173
3 173
33 34
81 92
119 622
4 16
125 126
85 489
32 245
22 33
34 35
66 67
61 397
37 49
7 8
